num_features = 34;
num_usage_limits = 7;
num_plans = 4;
num_addons = 0;

features = ["privateChannels","publicChannels","directMessages","threads","mentions","reactions","pin","saveMessages","messageHistory","shareFilesAndLinks","voiceMessages","messageFormatting","messageSchedule","reminders","fileStoragePerAccount","fileStoragePerUser","customizableSections","voiceCalls","videoCalls","screenSharing","userGroups","guestAccess","permissions","channelPostingPermissions","integrations","importFromSlack","dataEncryption","soc2","singleSignOn","dataRetention","phoneSupport","chatSupport","emailSupport","priorityCustomerSupport"];
usage_limits = ["users","useMessageHistory","useFileStoragePerAccount","useFileStoragePerUser","useVoiceCalls","useVideoCalls","useIntegrations"];
plans = ["FREE","PRO","BUSINESS","ENTERPRISE"];
addons = [];

plans_prices = [0,2.99,4.99,7.99];
addons_prices = [];

linked_features = array2d(USAGE_LIMITS, FEATURES, [
    % users
    0,0,0,0,0,0,0,0,0,0,0,0,0,0,0,0,0,0,0,0,0,0,0,0,0,0,0,0,0,0,0,0,0,0,
    % useMessageHistory
    0,0,0,0,0,0,0,0,1,0,0,0,0,0,0,0,0,0,0,0,0,0,0,0,0,0,0,0,0,0,0,0,0,0,
    % useFileStoragePerAccount
    0,0,0,0,0,0,0,0,0,0,0,0,0,0,1,0,0,0,0,0,0,0,0,0,0,0,0,0,0,0,0,0,0,0,
    % useFileStoragePerUser
    0,0,0,0,0,0,0,0,0,0,0,0,0,0,0,1,0,0,0,0,0,0,0,0,0,0,0,0,0,0,0,0,0,0,
    % useVoiceCalls
    0,0,0,0,0,0,0,0,0,0,0,0,0,0,0,0,0,1,0,0,0,0,0,0,0,0,0,0,0,0,0,0,0,0,
    % useVideoCalls
    0,0,0,0,0,0,0,0,0,0,0,0,0,0,0,0,0,0,1,0,0,0,0,0,0,0,0,0,0,0,0,0,0,0,
    % useIntegrations
    0,0,0,0,0,0,0,0,0,0,0,0,0,0,0,0,0,0,0,0,0,0,0,0,1,0,0,0,0,0,0,0,0,0
]);

plans_features = array2d(PLANS, FEATURES, [
    % FREE
    1,1,1,1,1,1,1,1,1,1,1,1,1,1,1,0,0,1,1,0,0,0,0,0,1,1,1,1,0,0,1,1,1,0,
    % PRO
    1,1,1,1,1,1,1,1,1,1,1,1,1,1,1,1,1,1,1,1,0,0,0,0,1,1,1,1,0,0,1,1,1,1,
    % BUSINESS
    1,1,1,1,1,1,1,1,1,1,1,1,1,1,1,1,1,1,1,1,1,1,1,1,1,1,1,1,0,0,1,1,1,1,
    % ENTERPRISE
    1,1,1,1,1,1,1,1,1,1,1,1,1,1,1,1,1,1,1,1,1,1,1,1,1,1,1,1,1,1,1,1,1,1
]);
plans_usage_limits = array2d(PLANS, USAGE_LIMITS, [
    % FREE
    1000000000,1000000000,10,10,1,1,3,
    % PRO
    1000000000,1000000000,10,10,25,25,10,
    % BUSINESS
    1000000000,1000000000,10,20,50,50,1000000000,
    % ENTERPRISE
    1000000000,1000000000,10,100,50,50,1000000000
]);

addons_features = array2d(ADDONS, FEATURES, [
]);
addons_usage_limits = array2d(ADDONS, USAGE_LIMITS, [
]);
addons_usage_limits_extensions = array2d(ADDONS, USAGE_LIMITS, [
]);
addons_available_for = array2d(ADDONS, PLANS, [
]);
addons_depends_on = array2d(ADDONS, ADDONS, [
]);
